language ESSENCE' 1.0

letting jobs = 102
letting horizon = 761
letting resourcesRenew = 2
letting resourcesNonrenew = 2
letting resourceLimits = [59, 56, 383, 400]
letting successors = [[2, 3, 4, 5, 6, 8, 9, 10, 12, 13, 14, 15, 16, 17, 18, 20, 22, 23, 24, 25, 28, 29, 32, 35, 36, 40, 44, 50, 52], [69, 62, 53, 33, 30, 11, 7], [96, 71, 67, 59, 55, 53, 51, 48, 41, 27, 19], [100, 99, 98, 97, 90, 74, 73, 72, 71, 67, 66, 62, 61, 58, 56, 54, 53, 48, 47, 37, 30], [97, 73, 70, 65, 62, 57, 56, 54, 51, 45, 41, 37, 21], [101, 100, 65, 62, 55, 54, 42, 39, 37, 33, 31], [101, 100, 97, 96, 89, 74, 73, 72, 71, 70, 68, 65, 61, 60, 56, 55, 47, 45, 41, 38], [101, 96, 89, 71, 69, 68, 65, 63, 62, 61, 59, 56, 55, 51, 49, 45, 43, 41], [100, 99, 96, 92, 90, 85, 73, 69, 65, 62, 60, 59, 54, 47, 42, 33], [99, 97, 72, 68, 66, 65, 64, 60, 55, 45, 41, 26], [97, 96, 94, 90, 89, 83, 72, 71, 70, 68, 67, 65, 63, 61, 59, 56, 54, 51, 41], [101, 99, 97, 94, 81, 72, 69, 68, 66, 59, 55, 47, 26], [101, 100, 98, 97, 96, 92, 90, 87, 71, 68, 65, 63, 62, 47, 42, 37], [101, 100, 99, 98, 97, 93, 89, 86, 70, 68, 67, 62, 60, 53, 45, 43], [99, 93, 92, 89, 85, 73, 56, 55, 54, 53, 51, 47, 34], [100, 97, 94, 93, 92, 90, 89, 86, 85, 84, 79, 72, 71, 70, 69, 64, 61, 60, 57, 54, 53], [96, 95, 94, 93, 92, 90, 84, 82, 81, 72, 71, 68, 67, 66, 65, 59, 56, 54, 47], [100, 98, 97, 96, 92, 91, 89, 88, 86, 81, 80, 65, 64, 62, 46, 45], [99, 98, 97, 93, 92, 91, 90, 89, 87, 85, 84, 81, 70, 69, 65, 61, 56, 54, 47], [101, 100, 96, 95, 93, 92, 90, 89, 87, 82, 77, 71, 69, 67, 66, 62, 60, 59, 53], [101, 100, 98, 93, 92, 91, 88, 87, 82, 80, 76, 69, 68, 67, 60, 42], [99, 95, 94, 91, 90, 88, 84, 72, 68, 64, 60, 55, 54, 41], [97, 96, 93, 92, 90, 89, 88, 86, 85, 84, 83, 82, 80, 76, 71, 66, 65, 64, 61, 60], [100, 98, 94, 91, 85, 84, 82, 81, 70, 67, 63, 54, 47], [98, 93, 92, 90, 87, 85, 81, 67, 63, 54, 42], [92, 91, 89, 88, 87, 86, 85, 84, 83, 82, 79, 78, 70, 61, 57, 54], [100, 98, 95, 93, 89, 88, 86, 84, 83, 79, 78, 45], [97, 96, 95, 92, 91, 87, 86, 85, 84, 83, 82, 78, 77, 76, 69, 66, 64], [98, 97, 95, 94, 90, 89, 88, 87, 86, 85, 82, 81, 77, 76, 64, 62], [95, 94, 93, 92, 91, 89, 85, 82, 80, 76, 75, 60, 55], [93, 92, 91, 90, 89, 88, 83, 79, 76, 64, 60, 57], [97, 92, 84, 83, 80, 78, 72, 68, 45], [98, 97, 93, 91, 87, 84, 82, 80, 78, 77, 76, 71, 70, 68], [96, 90, 86, 84, 83, 82, 81, 80, 77, 72, 67, 64], [93, 90, 88, 87, 85, 83, 82, 77, 76, 69, 65, 60], [100, 97, 84, 83, 82, 77, 76, 67, 66, 64, 60], [93, 88, 86, 83, 82, 80, 79, 77, 76, 69, 60], [92, 88, 85, 84, 82, 81, 80, 77, 76, 67, 64], [99, 90, 89, 85, 84, 83, 80, 76, 70, 60], [95, 91, 90, 89, 88, 85, 83, 82, 81, 75, 67], [98, 93, 87, 86, 85, 82, 80, 77, 76, 75], [94, 89, 86, 84, 78, 77, 66, 64], [95, 91, 88, 84, 83, 77, 76, 64], [97, 86, 85, 84, 83, 79, 76, 70], [94, 90, 87, 85, 82, 77, 76, 75], [95, 87, 83, 77, 69, 67], [88, 86, 83, 78, 77, 64], [92, 91, 84, 82, 81, 68], [93, 92, 85, 77, 76, 64], [96, 79, 78, 77, 76, 71], [84, 76, 66, 60], [92, 87, 75, 54], [83, 81, 80, 76, 65], [80, 77, 76], [87, 79, 77], [80, 79, 76], [96, 95, 77], [89, 88, 80], [91, 64], [81, 78], [77, 75], [79, 75], [86, 79], [75], [75], [79], [78], [75], [75], [75], [75], [76], [91], [79], [102], [102], [102], [102], [102], [102], [102], [102], [102], [102], [102], [102], [102], [102], [102], [102], [102], [102], [102], [102], [102], [102], [102], [102], [102], [102], [102], []]
letting durations = [[0], [3, 8, 9], [4, 4, 4], [2, 5, 8], [8, 9, 10], [1, 6, 6], [6, 9, 10], [3, 4, 4], [1, 4, 7], [1, 5, 8], [4, 5, 6], [1, 3, 8], [1, 5, 10], [2, 9, 10], [10, 10, 10], [3, 5, 6], [5, 9, 10], [6, 7, 10], [7, 8, 8], [1, 6, 7], [4, 6, 7], [6, 7, 10], [1, 7, 9], [1, 2, 3], [5, 5, 10], [2, 3, 4], [1, 2, 8], [1, 2, 6], [3, 5, 7], [1, 2, 3], [4, 6, 10], [4, 5, 9], [2, 4, 8], [8, 8, 10], [2, 4, 6], [1, 4, 5], [6, 7, 7], [2, 7, 9], [5, 5, 8], [1, 7, 9], [3, 5, 6], [3, 5, 10], [2, 5, 9], [4, 5, 9], [1, 5, 6], [3, 10, 10], [2, 3, 7], [1, 1, 3], [6, 6, 9], [2, 3, 4], [1, 6, 7], [4, 5, 10], [2, 6, 8], [1, 2, 5], [2, 5, 8], [1, 3, 5], [1, 3, 5], [3, 4, 5], [2, 2, 3], [4, 8, 9], [1, 3, 8], [8, 9, 9], [2, 4, 4], [3, 5, 10], [3, 6, 10], [2, 4, 6], [2, 5, 10], [2, 4, 8], [2, 8, 8], [2, 3, 7], [8, 8, 9], [3, 3, 10], [1, 6, 8], [2, 4, 5], [1, 1, 5], [6, 6, 9], [1, 4, 4], [2, 4, 9], [1, 9, 9], [6, 7, 9], [3, 7, 7], [2, 5, 9], [1, 3, 4], [6, 7, 9], [8, 9, 9], [1, 7, 8], [4, 6, 10], [1, 5, 10], [5, 6, 8], [3, 4, 6], [3, 4, 6], [2, 3, 5], [1, 1, 5], [6, 9, 10], [1, 6, 8], [1, 3, 8], [4, 4, 8], [4, 9, 10], [7, 8, 9], [1, 3, 8], [4, 8, 10], [0]]
letting resourceUsage = [[[0, 0, 0, 0]], [[0, 3, 9, 0], [1, 0, 8, 0], [1, 0, 0, 3]], [[0, 5, 0, 8], [4, 0, 0, 6], [0, 1, 7, 0]], [[4, 0, 0, 8], [0, 4, 0, 7], [0, 3, 0, 7]], [[0, 3, 5, 0], [0, 3, 4, 0], [3, 0, 0, 5]], [[3, 0, 4, 0], [0, 2, 0, 5], [3, 0, 0, 3]], [[3, 0, 0, 7], [0, 3, 4, 0], [0, 3, 1, 0]], [[2, 0, 0, 7], [0, 3, 7, 0], [2, 0, 5, 0]], [[3, 0, 6, 0], [2, 0, 6, 0], [0, 1, 6, 0]], [[0, 1, 5, 0], [4, 0, 0, 5], [4, 0, 1, 0]], [[3, 0, 9, 0], [0, 2, 0, 1], [0, 1, 0, 1]], [[3, 0, 0, 8], [0, 3, 0, 6], [0, 2, 3, 0]], [[3, 0, 0, 4], [0, 3, 7, 0], [0, 3, 0, 2]], [[0, 1, 0, 7], [0, 1, 5, 0], [0, 1, 4, 0]], [[3, 0, 9, 0], [0, 3, 0, 7], [0, 3, 7, 0]], [[5, 0, 0, 3], [0, 1, 0, 2], [0, 1, 0, 1]], [[1, 0, 10, 0], [1, 0, 0, 4], [0, 3, 0, 1]], [[3, 0, 7, 0], [3, 0, 6, 0], [3, 0, 0, 8]], [[4, 0, 0, 4], [0, 3, 8, 0], [4, 0, 0, 2]], [[0, 4, 7, 0], [0, 4, 5, 0], [2, 0, 2, 0]], [[1, 0, 0, 9], [0, 2, 8, 0], [0, 2, 7, 0]], [[3, 0, 0, 7], [0, 1, 0, 6], [0, 1, 0, 2]], [[0, 5, 0, 9], [0, 3, 0, 7], [0, 2, 0, 5]], [[0, 2, 5, 0], [3, 0, 0, 7], [2, 0, 0, 7]], [[0, 4, 7, 0], [4, 0, 7, 0], [0, 1, 0, 2]], [[0, 5, 3, 0], [3, 0, 2, 0], [1, 0, 2, 0]], [[0, 4, 6, 0], [0, 3, 0, 3], [0, 2, 0, 3]], [[3, 0, 0, 4], [3, 0, 0, 3], [0, 4, 7, 0]], [[4, 0, 6, 0], [3, 0, 0, 3], [3, 0, 4, 0]], [[0, 3, 7, 0], [0, 1, 0, 8], [0, 1, 0, 7]], [[0, 3, 7, 0], [0, 3, 6, 0], [3, 0, 6, 0]], [[0, 3, 8, 0], [0, 2, 5, 0], [1, 0, 2, 0]], [[0, 4, 9, 0], [0, 3, 0, 4], [0, 2, 0, 2]], [[1, 0, 0, 4], [1, 0, 9, 0], [0, 1, 0, 3]], [[3, 0, 0, 5], [0, 3, 0, 5], [2, 0, 0, 4]], [[0, 2, 2, 0], [3, 0, 3, 0], [3, 0, 2, 0]], [[0, 3, 7, 0], [0, 2, 0, 5], [2, 0, 0, 1]], [[0, 5, 7, 0], [4, 0, 0, 5], [4, 0, 0, 4]], [[3, 0, 4, 0], [0, 3, 0, 6], [2, 0, 0, 4]], [[4, 0, 0, 6], [0, 2, 4, 0], [0, 2, 0, 3]], [[0, 3, 0, 8], [2, 0, 2, 0], [2, 0, 1, 0]], [[4, 0, 6, 0], [3, 0, 6, 0], [0, 3, 0, 5]], [[0, 3, 0, 7], [0, 2, 0, 7], [3, 0, 3, 0]], [[0, 3, 0, 5], [2, 0, 0, 5], [0, 3, 0, 3]], [[0, 2, 4, 0], [0, 2, 3, 0], [0, 2, 1, 0]], [[3, 0, 7, 0], [0, 3, 0, 6], [0, 3, 3, 0]], [[0, 4, 0, 6], [2, 0, 0, 5], [0, 4, 4, 0]], [[4, 0, 7, 0], [0, 3, 6, 0], [1, 0, 3, 0]], [[5, 0, 0, 9], [0, 1, 9, 0], [4, 0, 9, 0]], [[0, 2, 10, 0], [0, 1, 8, 0], [1, 0, 0, 7]], [[0, 5, 0, 10], [2, 0, 6, 0], [2, 0, 5, 0]], [[0, 2, 0, 9], [2, 0, 7, 0], [2, 0, 0, 9]], [[4, 0, 0, 1], [0, 5, 0, 2], [0, 5, 0, 1]], [[5, 0, 2, 0], [0, 1, 0, 9], [0, 1, 1, 0]], [[1, 0, 0, 1], [1, 0, 5, 0], [0, 4, 4, 0]], [[0, 3, 0, 6], [0, 3, 0, 4], [0, 3, 0, 3]], [[3, 0, 0, 4], [3, 0, 5, 0], [3, 0, 0, 2]], [[3, 0, 4, 0], [3, 0, 0, 6], [0, 2, 1, 0]], [[0, 3, 4, 0], [1, 0, 0, 6], [1, 0, 0, 5]], [[0, 2, 4, 0], [2, 0, 4, 0], [0, 1, 4, 0]], [[3, 0, 0, 4], [2, 0, 0, 3], [2, 0, 0, 2]], [[1, 0, 0, 5], [1, 0, 0, 4], [1, 0, 9, 0]], [[0, 1, 3, 0], [2, 0, 0, 8], [0, 1, 2, 0]], [[0, 2, 0, 7], [4, 0, 4, 0], [4, 0, 0, 3]], [[5, 0, 0, 6], [0, 1, 3, 0], [0, 1, 0, 4]], [[0, 4, 0, 8], [4, 0, 0, 7], [4, 0, 6, 0]], [[3, 0, 4, 0], [3, 0, 3, 0], [3, 0, 1, 0]], [[5, 0, 0, 8], [0, 3, 7, 0], [4, 0, 5, 0]], [[0, 2, 0, 9], [2, 0, 0, 7], [2, 0, 4, 0]], [[1, 0, 0, 9], [0, 2, 2, 0], [1, 0, 0, 2]], [[3, 0, 8, 0], [3, 0, 0, 9], [0, 3, 0, 9]], [[0, 3, 0, 3], [3, 0, 5, 0], [3, 0, 2, 0]], [[1, 0, 0, 1], [0, 4, 7, 0], [0, 3, 0, 1]], [[0, 3, 0, 10], [1, 0, 2, 0], [0, 3, 0, 6]], [[4, 0, 5, 0], [0, 1, 0, 3], [1, 0, 4, 0]], [[4, 0, 0, 7], [0, 2, 0, 7], [0, 1, 0, 6]], [[0, 4, 0, 6], [2, 0, 5, 0], [0, 4, 0, 2]], [[5, 0, 8, 0], [4, 0, 0, 3], [0, 1, 0, 2]], [[5, 0, 0, 8], [0, 3, 0, 6], [4, 0, 0, 4]], [[0, 4, 0, 5], [0, 4, 0, 4], [4, 0, 1, 0]], [[4, 0, 8, 0], [0, 3, 7, 0], [0, 2, 0, 8]], [[0, 3, 0, 4], [3, 0, 0, 2], [0, 2, 0, 2]], [[0, 4, 3, 0], [0, 4, 2, 0], [0, 3, 3, 0]], [[0, 3, 3, 0], [0, 3, 0, 4], [2, 0, 2, 0]], [[0, 4, 7, 0], [0, 2, 0, 5], [2, 0, 0, 2]], [[0, 5, 0, 7], [0, 3, 0, 4], [5, 0, 4, 0]], [[0, 3, 0, 3], [0, 2, 7, 0], [0, 2, 5, 0]], [[0, 4, 4, 0], [0, 3, 2, 0], [1, 0, 1, 0]], [[0, 5, 0, 9], [2, 0, 8, 0], [0, 4, 0, 6]], [[0, 1, 5, 0], [4, 0, 0, 7], [0, 1, 4, 0]], [[4, 0, 7, 0], [0, 4, 4, 0], [0, 4, 0, 7]], [[5, 0, 0, 3], [5, 0, 0, 2], [5, 0, 0, 1]], [[4, 0, 4, 0], [4, 0, 0, 7], [4, 0, 0, 6]], [[0, 4, 8, 0], [0, 3, 0, 5], [4, 0, 0, 5]], [[0, 4, 0, 10], [0, 2, 7, 0], [3, 0, 0, 5]], [[1, 0, 7, 0], [1, 0, 0, 6], [0, 2, 2, 0]], [[0, 4, 5, 0], [0, 4, 0, 6], [0, 4, 0, 5]], [[2, 0, 4, 0], [0, 2, 0, 4], [2, 0, 3, 0]], [[5, 0, 0, 7], [0, 2, 9, 0], [2, 0, 0, 5]], [[5, 0, 0, 5], [0, 5, 5, 0], [0, 5, 4, 0]], [[0, 3, 7, 0], [3, 0, 0, 8], [0, 1, 0, 5]], [[0, 0, 0, 0]]]
